ObjectiveValue = 2607.4;
flow=[(1,6,2)(5,1,0)(5,2,0)(5,6,1)(5,7,0)(5,8,0)(5,9,0)(5,10,0)(5,11,10)(5,12,0)(6,1,6)(6,4,1)(6,10,1)(6,11,29)(8,11,4)(10,11,6)(11,6,32)(11,9,3)(11,10,4)(12,5,9)(12,6,10)(12,10,0)(12,11,7)];
